Maximize
  - 5.2082658850532 edge_0_1_0_0 - 4.93488 edge_0_2_0_0
   - 1.4680252519998 edge_0_3_0_0 - 4.317744208121701 edge_0_6_0_0
   - 3.2245781416081 edge_0_8_0_0 - 5.556419692667 edge_0_9_0_0
   - 3.1406343769584 edge_0_10_0_0 - 4.028186162952 edge_0_12_0_0
   - 5.3994519548046 edge_0_15_0_0 - 2.727664837839 edge_0_18_0_0
   - 0.27656069684901 edge_1_2_0_0 - 0.3243706269971666 edge_1_3_0_0
   + 0.1209060362655102 edge_1_4_0_0 - 0.8483009956543721 edge_1_8_0_0
   - 0.37384494339993 edge_2_1_0_0 + 0.53903894611718 edge_2_3_0_0
   + 0.31979170872858 edge_2_4_0_0 - 0.05475865293108 edge_2_8_0_0
   - 1.53621371124 edge_2_12_0_0 + 1.201431556529259 edge_3_1_0_0
   + 2.3588116015152 edge_3_2_0_0 + 2.813543272116937 edge_3_4_0_0
   + 0.00384281121578973 edge_3_5_0_0 - 0.8647297634503081 edge_3_6_0_0
   + 0.6021286592151341 edge_3_8_0_0 - 0.8074209018327575 edge_3_10_0_0
   - 0.6027852661096363 edge_3_12_0_0 - 0.5697007162765535 edge_3_15_0_0
   - 0.233375008554345 edge_3_18_0_0 - 1.153251600724426 edge_4_1_0_0
   - 1.0572925054043 edge_4_2_0_0 - 0.706897092681661 edge_4_5_0_0
   - 0.76122192558969 edge_4_8_0_0 - 0.3261556923909694 edge_5_1_0_0
   - 0.35146519694235 edge_5_2_0_0 - 0.0671402186918087 edge_5_3_0_0
   + 0.7996199908559587 edge_5_4_0_0 + 1.568545384860061 edge_5_6_0_0
   + 0.5660075997065364 edge_5_8_0_0 - 0.0706201359912395 edge_5_10_0_0
   - 0.2331246242428035 edge_5_11_0_0 - 1.112095050981345 edge_5_12_0_0
   - 1.663608709054064 edge_5_15_0_0 - 2.064564711270901 edge_5_16_0_0
   - 0.6858462283936378 edge_5_18_0_0 - 1.009280771797114 edge_6_1_0_0
   - 0.6317834902070379 edge_6_4_0_0 + 0.3223463249181504 edge_6_5_0_0
   + 0.6110477367796473 edge_6_8_0_0 - 0.5104833133812 edge_6_9_0_0
   + 0.6140739718536167 edge_6_10_0_0 + 0.2078626072678821 edge_6_12_0_0
   - 0.5687819041441601 edge_6_15_0_0 - 0.2764655749969175 edge_6_18_0_0
   - 0.016469890661172 edge_6_19_0_0 - 0.8220127073579871 edge_8_1_0_0
   - 1.091278675998 edge_8_2_0_0 - 0.5342939701418494 edge_8_3_0_0
   - 0.7154231037118449 edge_8_4_0_0 + 1.336314089872132 edge_8_5_0_0
   + 2.832057806607216 edge_8_6_0_0 + 0.6490457331593774 edge_8_9_0_0
   + 2.13741966727511 edge_8_10_0_0 + 0.2343564253870078 edge_8_11_0_0
   + 2.256018796127227 edge_8_12_0_0 - 0.0347683426599819 edge_8_13_0_0
   + 1.356862493813072 edge_8_15_0_0 + 0.8548860424055048 edge_8_18_0_0
   + 3.7120782069153 edge_8_19_0_0 - 0.5395036015646409 edge_9_6_0_0
   - 0.7507546396055294 edge_9_8_0_0 + 1.017760672136679 edge_9_10_0_0
   + 0.0739042368981516 edge_9_11_0_0 + 0.237649147297094 edge_9_12_0_0
   - 0.134937984534791 edge_9_13_0_0 - 0.3142654649100096 edge_9_15_0_0
   - 0.2478696375402035 edge_9_18_0_0 + 0.6114363595521001 edge_9_19_0_0
   - 0.9535036297241263 edge_10_1_0_0 - 0.63087126736446 edge_10_2_0_0
   - 0.9169795257794523 edge_10_3_0_0 - 0.5659954580971386 edge_10_4_0_0
   + 0.5787614991362773 edge_10_5_0_0 + 0.8831105623779263 edge_10_6_0_0
   + 0.7328054673564168 edge_10_8_0_0 + 3.109838719575677 edge_10_9_0_0
   + 0.5302943736746122 edge_10_11_0_0 + 0.7024900154846176 edge_10_12_0_0
   - 0.2594989765254931 edge_10_13_0_0 - 1.268910751432163 edge_10_15_0_0
   + 0.0507333281306458 edge_10_18_0_0 + 1.354860111744 edge_10_19_0_0
   - 0.0703662766393207 edge_11_6_0_0 - 0.1256537509958963 edge_11_9_0_0
   + 0.0198619858268921 edge_11_10_0_0 + 0.067685926007862 edge_11_13_0_0
   + 0.1349144205356034 edge_11_18_0_0 - 2.092762834455784 edge_12_1_0_0
   - 1.11569110614 edge_12_2_0_0 - 0.6335413101522775 edge_12_3_0_0
   - 1.673101968010461 edge_12_4_0_0 - 0.2207392786592812 edge_12_5_0_0
   + 0.5997027846143239 edge_12_6_0_0 + 0.1544318511924764 edge_12_8_0_0
   + 1.094809217102826 edge_12_9_0_0 + 1.02469651305298 edge_12_10_0_0
   + 2.223850102668222 edge_12_11_0_0 - 0.2676076754947632 edge_12_13_0_0
   + 0.0397950064239921 edge_12_15_0_0 + 0.8744205109993047 edge_12_18_0_0
   + 1.193829971744 edge_12_19_0_0 - 0.7184445747994138 edge_13_10_0_0
   - 0.2744242295030486 edge_13_12_0_0 - 0.3039088345844617 edge_13_15_0_0
   + 0.2552272803619602 edge_13_18_0_0 - 0.4290428937435569 edge_15_3_0_0
   + 0.3923218481155653 edge_15_6_0_0 - 0.7623946883901918 edge_15_8_0_0
   - 1.139985411842205 edge_15_9_0_0 - 0.0850540692000001 edge_15_10_0_0
   + 0.0178098238593229 edge_15_12_0_0 + 0.4336483824568873 edge_15_13_0_0
   + 3.496364791057899 edge_15_14_0_0 + 0.5980443811967119 edge_15_16_0_0
   + 0.749441334815332 edge_15_17_0_0 + 0.3703497694054214 edge_15_18_0_0
   + 1.491897777069 edge_15_19_0_0 + 0.01194739200338 edge_16_15_0_0
   - 0.7135869814205706 edge_17_15_0_0 - 0.2310861965017288 edge_17_16_0_0
   - 0.9137899495390072 edge_18_1_0_0 - 0.77567450273 edge_18_2_0_0
   - 0.3057786495264224 edge_18_3_0_0 - 0.3608688946489512 edge_18_5_0_0
   + 0.2740006661933831 edge_18_6_0_0 - 0.458592004460064 edge_18_8_0_0
   - 0.2312129826049625 edge_18_9_0_0 + 0.1822419288116274 edge_18_10_0_0
   + 0.2114173494233049 edge_18_11_0_0 + 0.4299787634972367 edge_18_12_0_0
   + 0.9141598597808632 edge_18_13_0_0 + 0.5471412025602682 edge_18_14_0_0
   + 2.525865742846949 edge_18_15_0_0 + 2.451293474820727 edge_18_16_0_0
   + 3.372604815005372 edge_18_17_0_0 + 0.8990793879739405 edge_18_18_0_0
   + 0.9525902436735999 edge_18_19_0_0 - 0.99914151127693 edge_19_15_0_0
Subject To
 one_parent_1: edge_0_1_0_0 + edge_2_1_0_0 + edge_3_1_0_0 + edge_4_1_0_0
   + edge_5_1_0_0 + edge_6_1_0_0 + edge_8_1_0_0 + edge_10_1_0_0
   + edge_12_1_0_0 + edge_18_1_0_0 = 1
 consume_one_flow_unit_1: flow_0_1_0_0 - flow_1_2_0_0 - flow_1_3_0_0
   - flow_1_4_0_0 - flow_1_8_0_0 + flow_2_1_0_0 + flow_3_1_0_0
   + flow_4_1_0_0 + flow_5_1_0_0 + flow_6_1_0_0 + flow_8_1_0_0
   + flow_10_1_0_0 + flow_12_1_0_0 + flow_18_1_0_0 = 1
 one_parent_2: edge_0_2_0_0 + edge_1_2_0_0 + edge_3_2_0_0 + edge_4_2_0_0
   + edge_5_2_0_0 + edge_8_2_0_0 + edge_10_2_0_0 + edge_12_2_0_0
   + edge_18_2_0_0 = 1
 consume_one_flow_unit_2: flow_0_2_0_0 + flow_1_2_0_0 - flow_2_1_0_0
   - flow_2_3_0_0 - flow_2_4_0_0 - flow_2_8_0_0 - flow_2_12_0_0
   + flow_3_2_0_0 + flow_4_2_0_0 + flow_5_2_0_0 + flow_8_2_0_0
   + flow_10_2_0_0 + flow_12_2_0_0 + flow_18_2_0_0 = 1
 one_parent_3: edge_0_3_0_0 + edge_1_3_0_0 + edge_2_3_0_0 + edge_5_3_0_0
   + edge_8_3_0_0 + edge_10_3_0_0 + edge_12_3_0_0 + edge_15_3_0_0
   + edge_18_3_0_0 = 1
 consume_one_flow_unit_3: flow_0_3_0_0 + flow_1_3_0_0 + flow_2_3_0_0
   - flow_3_1_0_0 - flow_3_2_0_0 - flow_3_4_0_0 - flow_3_5_0_0
   - flow_3_6_0_0 - flow_3_8_0_0 - flow_3_10_0_0 - flow_3_12_0_0
   - flow_3_15_0_0 - flow_3_18_0_0 + flow_5_3_0_0 + flow_8_3_0_0
   + flow_10_3_0_0 + flow_12_3_0_0 + flow_15_3_0_0 + flow_18_3_0_0 = 1
 one_parent_4: edge_1_4_0_0 + edge_2_4_0_0 + edge_3_4_0_0 + edge_5_4_0_0
   + edge_6_4_0_0 + edge_8_4_0_0 + edge_10_4_0_0 + edge_12_4_0_0 = 1
 consume_one_flow_unit_4: flow_1_4_0_0 + flow_2_4_0_0 + flow_3_4_0_0
   - flow_4_1_0_0 - flow_4_2_0_0 - flow_4_5_0_0 - flow_4_8_0_0
   + flow_5_4_0_0 + flow_6_4_0_0 + flow_8_4_0_0 + flow_10_4_0_0
   + flow_12_4_0_0 = 1
 one_parent_5: edge_3_5_0_0 + edge_4_5_0_0 + edge_6_5_0_0 + edge_8_5_0_0
   + edge_10_5_0_0 + edge_12_5_0_0 + edge_18_5_0_0 = 1
 consume_one_flow_unit_5: flow_3_5_0_0 + flow_4_5_0_0 - flow_5_1_0_0
   - flow_5_2_0_0 - flow_5_3_0_0 - flow_5_4_0_0 - flow_5_6_0_0
   - flow_5_8_0_0 - flow_5_10_0_0 - flow_5_11_0_0 - flow_5_12_0_0
   - flow_5_15_0_0 - flow_5_16_0_0 - flow_5_18_0_0 + flow_6_5_0_0
   + flow_8_5_0_0 + flow_10_5_0_0 + flow_12_5_0_0 + flow_18_5_0_0 = 1
 one_parent_6: edge_0_6_0_0 + edge_3_6_0_0 + edge_5_6_0_0 + edge_8_6_0_0
   + edge_9_6_0_0 + edge_10_6_0_0 + edge_11_6_0_0 + edge_12_6_0_0
   + edge_15_6_0_0 + edge_18_6_0_0 = 1
 consume_one_flow_unit_6: flow_0_6_0_0 + flow_3_6_0_0 + flow_5_6_0_0
   - flow_6_1_0_0 - flow_6_4_0_0 - flow_6_5_0_0 - flow_6_8_0_0
   - flow_6_9_0_0 - flow_6_10_0_0 - flow_6_12_0_0 - flow_6_15_0_0
   - flow_6_18_0_0 - flow_6_19_0_0 + flow_8_6_0_0 + flow_9_6_0_0
   + flow_10_6_0_0 + flow_11_6_0_0 + flow_12_6_0_0 + flow_15_6_0_0
   + flow_18_6_0_0 = 1
 one_parent_7: = 1
 consume_one_flow_unit_7: = 1
 one_parent_8: edge_0_8_0_0 + edge_1_8_0_0 + edge_2_8_0_0 + edge_3_8_0_0
   + edge_4_8_0_0 + edge_5_8_0_0 + edge_6_8_0_0 + edge_9_8_0_0
   + edge_10_8_0_0 + edge_12_8_0_0 + edge_15_8_0_0 + edge_18_8_0_0 = 1
 consume_one_flow_unit_8: flow_0_8_0_0 + flow_1_8_0_0 + flow_2_8_0_0
   + flow_3_8_0_0 + flow_4_8_0_0 + flow_5_8_0_0 + flow_6_8_0_0
   - flow_8_1_0_0 - flow_8_2_0_0 - flow_8_3_0_0 - flow_8_4_0_0
   - flow_8_5_0_0 - flow_8_6_0_0 - flow_8_9_0_0 - flow_8_10_0_0
   - flow_8_11_0_0 - flow_8_12_0_0 - flow_8_13_0_0 - flow_8_15_0_0
   - flow_8_18_0_0 - flow_8_19_0_0 + flow_9_8_0_0 + flow_10_8_0_0
   + flow_12_8_0_0 + flow_15_8_0_0 + flow_18_8_0_0 = 1
 one_parent_9: edge_0_9_0_0 + edge_6_9_0_0 + edge_8_9_0_0 + edge_10_9_0_0
   + edge_11_9_0_0 + edge_12_9_0_0 + edge_15_9_0_0 + edge_18_9_0_0 = 1
 consume_one_flow_unit_9: flow_0_9_0_0 + flow_6_9_0_0 + flow_8_9_0_0
   - flow_9_6_0_0 - flow_9_8_0_0 - flow_9_10_0_0 - flow_9_11_0_0
   - flow_9_12_0_0 - flow_9_13_0_0 - flow_9_15_0_0 - flow_9_18_0_0
   - flow_9_19_0_0 + flow_10_9_0_0 + flow_11_9_0_0 + flow_12_9_0_0
   + flow_15_9_0_0 + flow_18_9_0_0 = 1
 one_parent_10: edge_0_10_0_0 + edge_3_10_0_0 + edge_5_10_0_0
   + edge_6_10_0_0 + edge_8_10_0_0 + edge_9_10_0_0 + edge_11_10_0_0
   + edge_12_10_0_0 + edge_13_10_0_0 + edge_15_10_0_0 + edge_18_10_0_0 = 1
 consume_one_flow_unit_10: flow_0_10_0_0 + flow_3_10_0_0 + flow_5_10_0_0
   + flow_6_10_0_0 + flow_8_10_0_0 + flow_9_10_0_0 - flow_10_1_0_0
   - flow_10_2_0_0 - flow_10_3_0_0 - flow_10_4_0_0 - flow_10_5_0_0
   - flow_10_6_0_0 - flow_10_8_0_0 - flow_10_9_0_0 - flow_10_11_0_0
   - flow_10_12_0_0 - flow_10_13_0_0 - flow_10_15_0_0 - flow_10_18_0_0
   - flow_10_19_0_0 + flow_11_10_0_0 + flow_12_10_0_0 + flow_13_10_0_0
   + flow_15_10_0_0 + flow_18_10_0_0 = 1
 one_parent_11: edge_5_11_0_0 + edge_8_11_0_0 + edge_9_11_0_0
   + edge_10_11_0_0 + edge_12_11_0_0 + edge_18_11_0_0 = 1
 consume_one_flow_unit_11: flow_5_11_0_0 + flow_8_11_0_0 + flow_9_11_0_0
   + flow_10_11_0_0 - flow_11_6_0_0 - flow_11_9_0_0 - flow_11_10_0_0
   - flow_11_13_0_0 - flow_11_18_0_0 + flow_12_11_0_0 + flow_18_11_0_0 = 1
 one_parent_12: edge_0_12_0_0 + edge_2_12_0_0 + edge_3_12_0_0
   + edge_5_12_0_0 + edge_6_12_0_0 + edge_8_12_0_0 + edge_9_12_0_0
   + edge_10_12_0_0 + edge_13_12_0_0 + edge_15_12_0_0 + edge_18_12_0_0 = 1
 consume_one_flow_unit_12: flow_0_12_0_0 + flow_2_12_0_0 + flow_3_12_0_0
   + flow_5_12_0_0 + flow_6_12_0_0 + flow_8_12_0_0 + flow_9_12_0_0
   + flow_10_12_0_0 - flow_12_1_0_0 - flow_12_2_0_0 - flow_12_3_0_0
   - flow_12_4_0_0 - flow_12_5_0_0 - flow_12_6_0_0 - flow_12_8_0_0
   - flow_12_9_0_0 - flow_12_10_0_0 - flow_12_11_0_0 - flow_12_13_0_0
   - flow_12_15_0_0 - flow_12_18_0_0 - flow_12_19_0_0 + flow_13_12_0_0
   + flow_15_12_0_0 + flow_18_12_0_0 = 1
 one_parent_13: edge_8_13_0_0 + edge_9_13_0_0 + edge_10_13_0_0
   + edge_11_13_0_0 + edge_12_13_0_0 + edge_15_13_0_0 + edge_18_13_0_0 = 1
 consume_one_flow_unit_13: flow_8_13_0_0 + flow_9_13_0_0 + flow_10_13_0_0
   + flow_11_13_0_0 + flow_12_13_0_0 - flow_13_10_0_0 - flow_13_12_0_0
   - flow_13_15_0_0 - flow_13_18_0_0 + flow_15_13_0_0 + flow_18_13_0_0 = 1
 one_parent_14: edge_15_14_0_0 + edge_18_14_0_0 = 1
 consume_one_flow_unit_14: flow_15_14_0_0 + flow_18_14_0_0 = 1
 one_parent_15: edge_0_15_0_0 + edge_3_15_0_0 + edge_5_15_0_0
   + edge_6_15_0_0 + edge_8_15_0_0 + edge_9_15_0_0 + edge_10_15_0_0
   + edge_12_15_0_0 + edge_13_15_0_0 + edge_16_15_0_0 + edge_17_15_0_0
   + edge_18_15_0_0 + edge_19_15_0_0 = 1
 consume_one_flow_unit_15: flow_0_15_0_0 + flow_3_15_0_0 + flow_5_15_0_0
   + flow_6_15_0_0 + flow_8_15_0_0 + flow_9_15_0_0 + flow_10_15_0_0
   + flow_12_15_0_0 + flow_13_15_0_0 - flow_15_3_0_0 - flow_15_6_0_0
   - flow_15_8_0_0 - flow_15_9_0_0 - flow_15_10_0_0 - flow_15_12_0_0
   - flow_15_13_0_0 - flow_15_14_0_0 - flow_15_16_0_0 - flow_15_17_0_0
   - flow_15_18_0_0 - flow_15_19_0_0 + flow_16_15_0_0 + flow_17_15_0_0
   + flow_18_15_0_0 + flow_19_15_0_0 = 1
 one_parent_16: edge_5_16_0_0 + edge_15_16_0_0 + edge_17_16_0_0
   + edge_18_16_0_0 = 1
 consume_one_flow_unit_16: flow_5_16_0_0 + flow_15_16_0_0 - flow_16_15_0_0
   + flow_17_16_0_0 + flow_18_16_0_0 = 1
 one_parent_17: edge_15_17_0_0 + edge_18_17_0_0 = 1
 consume_one_flow_unit_17: flow_15_17_0_0 - flow_17_15_0_0 - flow_17_16_0_0
   + flow_18_17_0_0 = 1
 one_parent_18: edge_0_18_0_0 + edge_3_18_0_0 + edge_5_18_0_0
   + edge_6_18_0_0 + edge_8_18_0_0 + edge_9_18_0_0 + edge_10_18_0_0
   + edge_11_18_0_0 + edge_12_18_0_0 + edge_13_18_0_0 + edge_15_18_0_0
   + edge_18_18_0_0 = 1
 consume_one_flow_unit_18: flow_0_18_0_0 + flow_3_18_0_0 + flow_5_18_0_0
   + flow_6_18_0_0 + flow_8_18_0_0 + flow_9_18_0_0 + flow_10_18_0_0
   + flow_11_18_0_0 + flow_12_18_0_0 + flow_13_18_0_0 + flow_15_18_0_0
   - flow_18_1_0_0 - flow_18_2_0_0 - flow_18_3_0_0 - flow_18_5_0_0
   - flow_18_6_0_0 - flow_18_8_0_0 - flow_18_9_0_0 - flow_18_10_0_0
   - flow_18_11_0_0 - flow_18_12_0_0 - flow_18_13_0_0 - flow_18_14_0_0
   - flow_18_15_0_0 - flow_18_16_0_0 - flow_18_17_0_0 - flow_18_19_0_0 = 1
 one_parent_19: edge_6_19_0_0 + edge_8_19_0_0 + edge_9_19_0_0
   + edge_10_19_0_0 + edge_12_19_0_0 + edge_15_19_0_0 + edge_18_19_0_0 = 1
 consume_one_flow_unit_19: flow_6_19_0_0 + flow_8_19_0_0 + flow_9_19_0_0
   + flow_10_19_0_0 + flow_12_19_0_0 + flow_15_19_0_0 + flow_18_19_0_0
   - flow_19_15_0_0 = 1
 root_flow: flow_0_1_0_0 + flow_0_2_0_0 + flow_0_3_0_0 + flow_0_6_0_0
   + flow_0_8_0_0 + flow_0_9_0_0 + flow_0_10_0_0 + flow_0_12_0_0
   + flow_0_15_0_0 + flow_0_18_0_0 = 19
 inactive_no_flow_0_1_0_0: flow_0_1_0_0 - 1000 edge_0_1_0_0 <= 0
 inactive_no_flow_0_2_0_0: flow_0_2_0_0 - 1000 edge_0_2_0_0 <= 0
 inactive_no_flow_0_3_0_0: flow_0_3_0_0 - 1000 edge_0_3_0_0 <= 0
 inactive_no_flow_0_6_0_0: flow_0_6_0_0 - 1000 edge_0_6_0_0 <= 0
 inactive_no_flow_0_8_0_0: flow_0_8_0_0 - 1000 edge_0_8_0_0 <= 0
 inactive_no_flow_0_9_0_0: flow_0_9_0_0 - 1000 edge_0_9_0_0 <= 0
 inactive_no_flow_0_10_0_0: flow_0_10_0_0 - 1000 edge_0_10_0_0 <= 0
 inactive_no_flow_0_12_0_0: flow_0_12_0_0 - 1000 edge_0_12_0_0 <= 0
 inactive_no_flow_0_15_0_0: flow_0_15_0_0 - 1000 edge_0_15_0_0 <= 0
 inactive_no_flow_0_18_0_0: flow_0_18_0_0 - 1000 edge_0_18_0_0 <= 0
 inactive_no_flow_1_2_0_0: flow_1_2_0_0 - 1000 edge_1_2_0_0 <= 0
 inactive_no_flow_1_3_0_0: flow_1_3_0_0 - 1000 edge_1_3_0_0 <= 0
 inactive_no_flow_1_4_0_0: flow_1_4_0_0 - 1000 edge_1_4_0_0 <= 0
 inactive_no_flow_1_8_0_0: flow_1_8_0_0 - 1000 edge_1_8_0_0 <= 0
 inactive_no_flow_2_1_0_0: flow_2_1_0_0 - 1000 edge_2_1_0_0 <= 0
 inactive_no_flow_2_3_0_0: flow_2_3_0_0 - 1000 edge_2_3_0_0 <= 0
 inactive_no_flow_2_4_0_0: flow_2_4_0_0 - 1000 edge_2_4_0_0 <= 0
 inactive_no_flow_2_8_0_0: flow_2_8_0_0 - 1000 edge_2_8_0_0 <= 0
 inactive_no_flow_2_12_0_0: flow_2_12_0_0 - 1000 edge_2_12_0_0 <= 0
 inactive_no_flow_3_1_0_0: flow_3_1_0_0 - 1000 edge_3_1_0_0 <= 0
 inactive_no_flow_3_2_0_0: flow_3_2_0_0 - 1000 edge_3_2_0_0 <= 0
 inactive_no_flow_3_4_0_0: flow_3_4_0_0 - 1000 edge_3_4_0_0 <= 0
 inactive_no_flow_3_5_0_0: flow_3_5_0_0 - 1000 edge_3_5_0_0 <= 0
 inactive_no_flow_3_6_0_0: flow_3_6_0_0 - 1000 edge_3_6_0_0 <= 0
 inactive_no_flow_3_8_0_0: flow_3_8_0_0 - 1000 edge_3_8_0_0 <= 0
 inactive_no_flow_3_10_0_0: flow_3_10_0_0 - 1000 edge_3_10_0_0 <= 0
 inactive_no_flow_3_12_0_0: flow_3_12_0_0 - 1000 edge_3_12_0_0 <= 0
 inactive_no_flow_3_15_0_0: flow_3_15_0_0 - 1000 edge_3_15_0_0 <= 0
 inactive_no_flow_3_18_0_0: flow_3_18_0_0 - 1000 edge_3_18_0_0 <= 0
 inactive_no_flow_4_1_0_0: flow_4_1_0_0 - 1000 edge_4_1_0_0 <= 0
 inactive_no_flow_4_2_0_0: flow_4_2_0_0 - 1000 edge_4_2_0_0 <= 0
 inactive_no_flow_4_5_0_0: flow_4_5_0_0 - 1000 edge_4_5_0_0 <= 0
 inactive_no_flow_4_8_0_0: flow_4_8_0_0 - 1000 edge_4_8_0_0 <= 0
 inactive_no_flow_5_1_0_0: flow_5_1_0_0 - 1000 edge_5_1_0_0 <= 0
 inactive_no_flow_5_2_0_0: flow_5_2_0_0 - 1000 edge_5_2_0_0 <= 0
 inactive_no_flow_5_3_0_0: flow_5_3_0_0 - 1000 edge_5_3_0_0 <= 0
 inactive_no_flow_5_4_0_0: flow_5_4_0_0 - 1000 edge_5_4_0_0 <= 0
 inactive_no_flow_5_6_0_0: flow_5_6_0_0 - 1000 edge_5_6_0_0 <= 0
 inactive_no_flow_5_8_0_0: flow_5_8_0_0 - 1000 edge_5_8_0_0 <= 0
 inactive_no_flow_5_10_0_0: flow_5_10_0_0 - 1000 edge_5_10_0_0 <= 0
 inactive_no_flow_5_11_0_0: flow_5_11_0_0 - 1000 edge_5_11_0_0 <= 0
 inactive_no_flow_5_12_0_0: flow_5_12_0_0 - 1000 edge_5_12_0_0 <= 0
 inactive_no_flow_5_15_0_0: flow_5_15_0_0 - 1000 edge_5_15_0_0 <= 0
 inactive_no_flow_5_16_0_0: flow_5_16_0_0 - 1000 edge_5_16_0_0 <= 0
 inactive_no_flow_5_18_0_0: flow_5_18_0_0 - 1000 edge_5_18_0_0 <= 0
 inactive_no_flow_6_1_0_0: flow_6_1_0_0 - 1000 edge_6_1_0_0 <= 0
 inactive_no_flow_6_4_0_0: flow_6_4_0_0 - 1000 edge_6_4_0_0 <= 0
 inactive_no_flow_6_5_0_0: flow_6_5_0_0 - 1000 edge_6_5_0_0 <= 0
 inactive_no_flow_6_8_0_0: flow_6_8_0_0 - 1000 edge_6_8_0_0 <= 0
 inactive_no_flow_6_9_0_0: flow_6_9_0_0 - 1000 edge_6_9_0_0 <= 0
 inactive_no_flow_6_10_0_0: flow_6_10_0_0 - 1000 edge_6_10_0_0 <= 0
 inactive_no_flow_6_12_0_0: flow_6_12_0_0 - 1000 edge_6_12_0_0 <= 0
 inactive_no_flow_6_15_0_0: flow_6_15_0_0 - 1000 edge_6_15_0_0 <= 0
 inactive_no_flow_6_18_0_0: flow_6_18_0_0 - 1000 edge_6_18_0_0 <= 0
 inactive_no_flow_6_19_0_0: flow_6_19_0_0 - 1000 edge_6_19_0_0 <= 0
 inactive_no_flow_8_1_0_0: flow_8_1_0_0 - 1000 edge_8_1_0_0 <= 0
 inactive_no_flow_8_2_0_0: flow_8_2_0_0 - 1000 edge_8_2_0_0 <= 0
 inactive_no_flow_8_3_0_0: flow_8_3_0_0 - 1000 edge_8_3_0_0 <= 0
 inactive_no_flow_8_4_0_0: flow_8_4_0_0 - 1000 edge_8_4_0_0 <= 0
 inactive_no_flow_8_5_0_0: flow_8_5_0_0 - 1000 edge_8_5_0_0 <= 0
 inactive_no_flow_8_6_0_0: flow_8_6_0_0 - 1000 edge_8_6_0_0 <= 0
 inactive_no_flow_8_9_0_0: flow_8_9_0_0 - 1000 edge_8_9_0_0 <= 0
 inactive_no_flow_8_10_0_0: flow_8_10_0_0 - 1000 edge_8_10_0_0 <= 0
 inactive_no_flow_8_11_0_0: flow_8_11_0_0 - 1000 edge_8_11_0_0 <= 0
 inactive_no_flow_8_12_0_0: flow_8_12_0_0 - 1000 edge_8_12_0_0 <= 0
 inactive_no_flow_8_13_0_0: flow_8_13_0_0 - 1000 edge_8_13_0_0 <= 0
 inactive_no_flow_8_15_0_0: flow_8_15_0_0 - 1000 edge_8_15_0_0 <= 0
 inactive_no_flow_8_18_0_0: flow_8_18_0_0 - 1000 edge_8_18_0_0 <= 0
 inactive_no_flow_8_19_0_0: flow_8_19_0_0 - 1000 edge_8_19_0_0 <= 0
 inactive_no_flow_9_6_0_0: flow_9_6_0_0 - 1000 edge_9_6_0_0 <= 0
 inactive_no_flow_9_8_0_0: flow_9_8_0_0 - 1000 edge_9_8_0_0 <= 0
 inactive_no_flow_9_10_0_0: flow_9_10_0_0 - 1000 edge_9_10_0_0 <= 0
 inactive_no_flow_9_11_0_0: flow_9_11_0_0 - 1000 edge_9_11_0_0 <= 0
 inactive_no_flow_9_12_0_0: flow_9_12_0_0 - 1000 edge_9_12_0_0 <= 0
 inactive_no_flow_9_13_0_0: flow_9_13_0_0 - 1000 edge_9_13_0_0 <= 0
 inactive_no_flow_9_15_0_0: flow_9_15_0_0 - 1000 edge_9_15_0_0 <= 0
 inactive_no_flow_9_18_0_0: flow_9_18_0_0 - 1000 edge_9_18_0_0 <= 0
 inactive_no_flow_9_19_0_0: flow_9_19_0_0 - 1000 edge_9_19_0_0 <= 0
 inactive_no_flow_10_1_0_0: flow_10_1_0_0 - 1000 edge_10_1_0_0 <= 0
 inactive_no_flow_10_2_0_0: flow_10_2_0_0 - 1000 edge_10_2_0_0 <= 0
 inactive_no_flow_10_3_0_0: flow_10_3_0_0 - 1000 edge_10_3_0_0 <= 0
 inactive_no_flow_10_4_0_0: flow_10_4_0_0 - 1000 edge_10_4_0_0 <= 0
 inactive_no_flow_10_5_0_0: flow_10_5_0_0 - 1000 edge_10_5_0_0 <= 0
 inactive_no_flow_10_6_0_0: flow_10_6_0_0 - 1000 edge_10_6_0_0 <= 0
 inactive_no_flow_10_8_0_0: flow_10_8_0_0 - 1000 edge_10_8_0_0 <= 0
 inactive_no_flow_10_9_0_0: flow_10_9_0_0 - 1000 edge_10_9_0_0 <= 0
 inactive_no_flow_10_11_0_0: flow_10_11_0_0 - 1000 edge_10_11_0_0 <= 0
 inactive_no_flow_10_12_0_0: flow_10_12_0_0 - 1000 edge_10_12_0_0 <= 0
 inactive_no_flow_10_13_0_0: flow_10_13_0_0 - 1000 edge_10_13_0_0 <= 0
 inactive_no_flow_10_15_0_0: flow_10_15_0_0 - 1000 edge_10_15_0_0 <= 0
 inactive_no_flow_10_18_0_0: flow_10_18_0_0 - 1000 edge_10_18_0_0 <= 0
 inactive_no_flow_10_19_0_0: flow_10_19_0_0 - 1000 edge_10_19_0_0 <= 0
 inactive_no_flow_11_6_0_0: flow_11_6_0_0 - 1000 edge_11_6_0_0 <= 0
 inactive_no_flow_11_9_0_0: flow_11_9_0_0 - 1000 edge_11_9_0_0 <= 0
 inactive_no_flow_11_10_0_0: flow_11_10_0_0 - 1000 edge_11_10_0_0 <= 0
 inactive_no_flow_11_13_0_0: flow_11_13_0_0 - 1000 edge_11_13_0_0 <= 0
 inactive_no_flow_11_18_0_0: flow_11_18_0_0 - 1000 edge_11_18_0_0 <= 0
 inactive_no_flow_12_1_0_0: flow_12_1_0_0 - 1000 edge_12_1_0_0 <= 0
 inactive_no_flow_12_2_0_0: flow_12_2_0_0 - 1000 edge_12_2_0_0 <= 0
 inactive_no_flow_12_3_0_0: flow_12_3_0_0 - 1000 edge_12_3_0_0 <= 0
 inactive_no_flow_12_4_0_0: flow_12_4_0_0 - 1000 edge_12_4_0_0 <= 0
 inactive_no_flow_12_5_0_0: flow_12_5_0_0 - 1000 edge_12_5_0_0 <= 0
 inactive_no_flow_12_6_0_0: flow_12_6_0_0 - 1000 edge_12_6_0_0 <= 0
 inactive_no_flow_12_8_0_0: flow_12_8_0_0 - 1000 edge_12_8_0_0 <= 0
 inactive_no_flow_12_9_0_0: flow_12_9_0_0 - 1000 edge_12_9_0_0 <= 0
 inactive_no_flow_12_10_0_0: flow_12_10_0_0 - 1000 edge_12_10_0_0 <= 0
 inactive_no_flow_12_11_0_0: flow_12_11_0_0 - 1000 edge_12_11_0_0 <= 0
 inactive_no_flow_12_13_0_0: flow_12_13_0_0 - 1000 edge_12_13_0_0 <= 0
 inactive_no_flow_12_15_0_0: flow_12_15_0_0 - 1000 edge_12_15_0_0 <= 0
 inactive_no_flow_12_18_0_0: flow_12_18_0_0 - 1000 edge_12_18_0_0 <= 0
 inactive_no_flow_12_19_0_0: flow_12_19_0_0 - 1000 edge_12_19_0_0 <= 0
 inactive_no_flow_13_10_0_0: flow_13_10_0_0 - 1000 edge_13_10_0_0 <= 0
 inactive_no_flow_13_12_0_0: flow_13_12_0_0 - 1000 edge_13_12_0_0 <= 0
 inactive_no_flow_13_15_0_0: flow_13_15_0_0 - 1000 edge_13_15_0_0 <= 0
 inactive_no_flow_13_18_0_0: flow_13_18_0_0 - 1000 edge_13_18_0_0 <= 0
 inactive_no_flow_15_3_0_0: flow_15_3_0_0 - 1000 edge_15_3_0_0 <= 0
 inactive_no_flow_15_6_0_0: flow_15_6_0_0 - 1000 edge_15_6_0_0 <= 0
 inactive_no_flow_15_8_0_0: flow_15_8_0_0 - 1000 edge_15_8_0_0 <= 0
 inactive_no_flow_15_9_0_0: flow_15_9_0_0 - 1000 edge_15_9_0_0 <= 0
 inactive_no_flow_15_10_0_0: flow_15_10_0_0 - 1000 edge_15_10_0_0 <= 0
 inactive_no_flow_15_12_0_0: flow_15_12_0_0 - 1000 edge_15_12_0_0 <= 0
 inactive_no_flow_15_13_0_0: flow_15_13_0_0 - 1000 edge_15_13_0_0 <= 0
 inactive_no_flow_15_14_0_0: flow_15_14_0_0 - 1000 edge_15_14_0_0 <= 0
 inactive_no_flow_15_16_0_0: flow_15_16_0_0 - 1000 edge_15_16_0_0 <= 0
 inactive_no_flow_15_17_0_0: flow_15_17_0_0 - 1000 edge_15_17_0_0 <= 0
 inactive_no_flow_15_18_0_0: flow_15_18_0_0 - 1000 edge_15_18_0_0 <= 0
 inactive_no_flow_15_19_0_0: flow_15_19_0_0 - 1000 edge_15_19_0_0 <= 0
 inactive_no_flow_16_15_0_0: flow_16_15_0_0 - 1000 edge_16_15_0_0 <= 0
 inactive_no_flow_17_15_0_0: flow_17_15_0_0 - 1000 edge_17_15_0_0 <= 0
 inactive_no_flow_17_16_0_0: flow_17_16_0_0 - 1000 edge_17_16_0_0 <= 0
 inactive_no_flow_18_1_0_0: flow_18_1_0_0 - 1000 edge_18_1_0_0 <= 0
 inactive_no_flow_18_2_0_0: flow_18_2_0_0 - 1000 edge_18_2_0_0 <= 0
 inactive_no_flow_18_3_0_0: flow_18_3_0_0 - 1000 edge_18_3_0_0 <= 0
 inactive_no_flow_18_5_0_0: flow_18_5_0_0 - 1000 edge_18_5_0_0 <= 0
 inactive_no_flow_18_6_0_0: flow_18_6_0_0 - 1000 edge_18_6_0_0 <= 0
 inactive_no_flow_18_8_0_0: flow_18_8_0_0 - 1000 edge_18_8_0_0 <= 0
 inactive_no_flow_18_9_0_0: flow_18_9_0_0 - 1000 edge_18_9_0_0 <= 0
 inactive_no_flow_18_10_0_0: flow_18_10_0_0 - 1000 edge_18_10_0_0 <= 0
 inactive_no_flow_18_11_0_0: flow_18_11_0_0 - 1000 edge_18_11_0_0 <= 0
 inactive_no_flow_18_12_0_0: flow_18_12_0_0 - 1000 edge_18_12_0_0 <= 0
 inactive_no_flow_18_13_0_0: flow_18_13_0_0 - 1000 edge_18_13_0_0 <= 0
 inactive_no_flow_18_14_0_0: flow_18_14_0_0 - 1000 edge_18_14_0_0 <= 0
 inactive_no_flow_18_15_0_0: flow_18_15_0_0 - 1000 edge_18_15_0_0 <= 0
 inactive_no_flow_18_16_0_0: flow_18_16_0_0 - 1000 edge_18_16_0_0 <= 0
 inactive_no_flow_18_17_0_0: flow_18_17_0_0 - 1000 edge_18_17_0_0 <= 0
 inactive_no_flow_18_18_0_0: flow_18_18_0_0 - 1000 edge_18_18_0_0 <= 0
 inactive_no_flow_18_19_0_0: flow_18_19_0_0 - 1000 edge_18_19_0_0 <= 0
 inactive_no_flow_19_15_0_0: flow_19_15_0_0 - 1000 edge_19_15_0_0 <= 0
Bounds
Binaries
 edge_0_1_0_0 edge_0_2_0_0 edge_0_3_0_0 edge_0_6_0_0 edge_0_8_0_0
 edge_0_9_0_0 edge_0_10_0_0 edge_0_12_0_0 edge_0_15_0_0 edge_0_18_0_0
 edge_1_2_0_0 edge_1_3_0_0 edge_1_4_0_0 edge_1_8_0_0 edge_2_1_0_0
 edge_2_3_0_0 edge_2_4_0_0 edge_2_8_0_0 edge_2_12_0_0 edge_3_1_0_0
 edge_3_2_0_0 edge_3_4_0_0 edge_3_5_0_0 edge_3_6_0_0 edge_3_8_0_0
 edge_3_10_0_0 edge_3_12_0_0 edge_3_15_0_0 edge_3_18_0_0 edge_4_1_0_0
 edge_4_2_0_0 edge_4_5_0_0 edge_4_8_0_0 edge_5_1_0_0 edge_5_2_0_0
 edge_5_3_0_0 edge_5_4_0_0 edge_5_6_0_0 edge_5_8_0_0 edge_5_10_0_0
 edge_5_11_0_0 edge_5_12_0_0 edge_5_15_0_0 edge_5_16_0_0 edge_5_18_0_0
 edge_6_1_0_0 edge_6_4_0_0 edge_6_5_0_0 edge_6_8_0_0 edge_6_9_0_0
 edge_6_10_0_0 edge_6_12_0_0 edge_6_15_0_0 edge_6_18_0_0 edge_6_19_0_0
 edge_8_1_0_0 edge_8_2_0_0 edge_8_3_0_0 edge_8_4_0_0 edge_8_5_0_0
 edge_8_6_0_0 edge_8_9_0_0 edge_8_10_0_0 edge_8_11_0_0 edge_8_12_0_0
 edge_8_13_0_0 edge_8_15_0_0 edge_8_18_0_0 edge_8_19_0_0 edge_9_6_0_0
 edge_9_8_0_0 edge_9_10_0_0 edge_9_11_0_0 edge_9_12_0_0 edge_9_13_0_0
 edge_9_15_0_0 edge_9_18_0_0 edge_9_19_0_0 edge_10_1_0_0 edge_10_2_0_0
 edge_10_3_0_0 edge_10_4_0_0 edge_10_5_0_0 edge_10_6_0_0 edge_10_8_0_0
 edge_10_9_0_0 edge_10_11_0_0 edge_10_12_0_0 edge_10_13_0_0 edge_10_15_0_0
 edge_10_18_0_0 edge_10_19_0_0 edge_11_6_0_0 edge_11_9_0_0 edge_11_10_0_0
 edge_11_13_0_0 edge_11_18_0_0 edge_12_1_0_0 edge_12_2_0_0 edge_12_3_0_0
 edge_12_4_0_0 edge_12_5_0_0 edge_12_6_0_0 edge_12_8_0_0 edge_12_9_0_0
 edge_12_10_0_0 edge_12_11_0_0 edge_12_13_0_0 edge_12_15_0_0 edge_12_18_0_0
 edge_12_19_0_0 edge_13_10_0_0 edge_13_12_0_0 edge_13_15_0_0 edge_13_18_0_0
 edge_15_3_0_0 edge_15_6_0_0 edge_15_8_0_0 edge_15_9_0_0 edge_15_10_0_0
 edge_15_12_0_0 edge_15_13_0_0 edge_15_14_0_0 edge_15_16_0_0 edge_15_17_0_0
 edge_15_18_0_0 edge_15_19_0_0 edge_16_15_0_0 edge_17_15_0_0 edge_17_16_0_0
 edge_18_1_0_0 edge_18_2_0_0 edge_18_3_0_0 edge_18_5_0_0 edge_18_6_0_0
 edge_18_8_0_0 edge_18_9_0_0 edge_18_10_0_0 edge_18_11_0_0 edge_18_12_0_0
 edge_18_13_0_0 edge_18_14_0_0 edge_18_15_0_0 edge_18_16_0_0 edge_18_17_0_0
 edge_18_18_0_0 edge_18_19_0_0 edge_19_15_0_0
End
